p tw 97 111
1 2
2 13
3 96
4 5
5 6
6 7
7 8
8 9
9 10
10 11
11 12
12 14
13 24
14 15
14 20
15 16
16 17
17 18
18 19
19 20
20 21
21 22
22 23
23 25
24 35
24 83
25 26
25 9
26 27
27 28
28 29
29 30
30 31
31 32
32 33
32 96
33 34
34 36
35 46
36 37
37 38
37 41
38 39
39 40
40 41
41 42
42 43
43 29
44 45
45 47
46 57
46 94
47 48
48 49
49 50
49 96
50 51
51 52
52 53
53 54
54 55
54 96
55 56
56 58
57 68
58 59
59 60
60 61
61 62
62 63
63 64
64 65
64 77
65 66
66 67
67 69
68 79
68 4
69 70
70 71
71 72
72 73
73 74
74 75
75 76
75 77
76 77
77 78
78 80
79 90
80 81
81 82
81 59
82 96
83 84
84 85
84 96
85 86
86 87
87 88
88 89
88 91
89 91
90 3
90 44
91 92
92 93
93 96
94 95
95 96
96 97
